Code/DataStore/DataStore/DataStore/Data/FJSSP_benchmark_instances_literature/BBDH-i/Training/BBDHi_00.txt
30 10
 6  5 5 17 6 17 7 17 2 17 10 17 7 6 95 8 95 10 95 7 95 2 95 1 95 5 95 6 9 6 4 6 8 6 5 6 6 6 10 6 6 1 78 6 78 7 78 3 78 8 78 5 78 5 9 19 8 19 1 19 3 19 2 19 5 4 61 10 61 2 61 5 61 9 61 
 6  7 2 65 3 65 7 65 1 65 5 65 6 65 4 65 7 9 17 1 17 4 17 6 17 5 17 7 17 3 17 4 9 17 8 17 7 17 4 17 3 8 54 3 54 5 54 3 6 93 4 93 2 93 6 2 63 3 63 7 63 9 63 6 63 8 63 
 6  7 10 60 8 60 9 60 5 60 3 60 1 60 6 60 7 3 33 9 33 10 33 5 33 6 33 8 33 1 33 5 10 71 7 71 1 71 4 71 3 71 4 10 55 7 55 3 55 6 55 3 7 35 4 35 1 35 3 5 8 8 8 10 8 
 5  4 7 31 8 31 6 31 2 31 7 4 85 9 85 1 85 2 85 8 85 10 85 5 85 5 10 78 7 78 8 78 1 78 5 78 4 5 12 7 12 10 12 2 12 7 1 99 9 99 4 99 8 99 6 99 7 99 5 99 
 4  4 5 32 6 32 9 32 10 32 3 3 99 2 99 7 99 5 6 57 4 57 3 57 8 57 9 57 3 1 92 10 92 9 92 
 5  5 6 71 1 71 4 71 3 71 8 71 3 6 81 7 81 9 81 3 9 68 5 68 3 68 6 2 14 5 14 4 14 1 14 6 14 3 14 4 1 67 6 67 7 67 3 67 
 6  3 3 26 1 26 9 26 3 1 49 3 49 6 49 3 3 2 2 2 7 2 6 3 10 4 10 10 10 1 10 8 10 5 10 4 5 86 9 86 2 86 10 86 6 1 18 8 18 4 18 10 18 3 18 6 18 
 4  3 8 10 1 10 10 10 4 10 44 5 44 2 44 3 44 5 5 57 4 57 1 57 2 57 8 57 5 2 86 3 86 5 86 7 86 4 86 
 6  4 1 39 3 39 2 39 5 39 4 7 76 9 76 6 76 8 76 7 7 55 10 55 5 55 2 55 9 55 1 55 3 55 6 9 87 7 87 3 87 5 87 6 87 4 87 3 5 59 10 59 4 59 3 6 23 4 23 2 23 
 5  3 8 23 9 23 6 23 3 2 25 6 25 9 25 3 6 1 7 1 4 1 3 4 46 10 46 6 46 5 2 32 8 32 10 32 1 32 7 32 
 4  5 9 77 7 77 6 77 2 77 3 77 4 6 18 1 18 8 18 10 18 7 9 46 5 46 10 46 3 46 1 46 7 46 6 46 3 2 57 6 57 5 57 
 4  3 4 33 1 33 10 33 4 8 23 2 23 7 23 4 23 7 6 26 10 26 1 26 3 26 7 26 8 26 9 26 6 9 63 8 63 6 63 2 63 7 63 1 63 
 5  5 8 63 5 63 7 63 3 63 2 63 7 7 51 1 51 2 51 6 51 9 51 8 51 5 51 4 7 68 2 68 3 68 5 68 6 6 95 7 95 9 95 3 95 2 95 4 95 5 2 12 5 12 10 12 3 12 1 12 
 5  6 3 56 6 56 10 56 4 56 2 56 8 56 7 3 66 10 66 8 66 5 66 9 66 6 66 2 66 5 7 48 4 48 10 48 6 48 8 48 7 1 17 9 17 2 17 8 17 6 17 7 17 5 17 6 2 87 7 87 10 87 1 87 3 87 5 87 
 6  6 4 9 9 9 1 9 10 9 6 9 8 9 3 8 23 1 23 10 23 7 3 37 9 37 4 37 8 37 7 37 5 37 1 37 4 8 32 5 32 4 32 9 32 3 7 46 2 46 3 46 6 1 22 8 22 3 22 7 22 9 22 4 22 
 6  3 9 95 4 95 7 95 3 9 43 2 43 6 43 5 5 88 3 88 6 88 7 88 4 88 7 7 75 6 75 2 75 9 75 3 75 1 75 4 75 5 10 93 4 93 6 93 1 93 8 93 6 5 64 6 64 9 64 8 64 3 64 7 64 
 5  7 6 50 1 50 5 50 4 50 3 50 2 50 7 50 5 2 13 9 13 10 13 5 13 1 13 7 7 83 6 83 3 83 2 83 10 83 9 83 4 83 6 7 95 6 95 5 95 1 95 4 95 10 95 7 4 17 2 17 9 17 10 17 1 17 5 17 8 17 
 4  7 8 15 7 15 4 15 10 15 9 15 3 15 5 15 7 5 38 1 38 10 38 6 38 8 38 9 38 7 38 6 3 72 1 72 9 72 6 72 2 72 5 72 7 1 87 8 87 9 87 3 87 6 87 10 87 2 87 
 6  6 3 6 8 6 9 6 1 6 10 6 7 6 6 9 14 4 14 6 14 3 14 1 14 8 14 6 6 79 5 79 3 79 2 79 8 79 4 79 4 2 89 9 89 4 89 8 89 4 9 21 5 21 4 21 3 21 5 4 96 1 96 7 96 5 96 3 96 
 5  4 2 58 3 58 6 58 5 58 4 10 88 2 88 7 88 9 88 3 4 3 3 3 9 3 3 8 48 2 48 9 48 3 4 40 6 40 9 40 
 6  7 8 13 6 13 5 13 1 13 7 13 4 13 10 13 7 3 25 10 25 8 25 2 25 6 25 5 25 1 25 7 9 21 8 21 10 21 2 21 1 21 6 21 7 21 4 7 29 5 29 2 29 6 29 6 6 95 2 95 7 95 3 95 10 95 5 95 6 10 7 9 7 4 7 1 7 8 7 2 7 
 4  5 2 94 3 94 8 94 7 94 10 94 7 8 18 2 18 3 18 9 18 10 18 1 18 4 18 4 3 30 4 30 9 30 10 30 3 9 79 4 79 1 79 
 4  7 10 22 9 22 2 22 7 22 3 22 1 22 5 22 4 7 66 9 66 6 66 4 66 4 1 83 4 83 9 83 5 83 3 10 55 9 55 3 55 
 4  7 7 18 2 18 5 18 1 18 9 18 8 18 3 18 7 7 67 4 67 5 67 9 67 3 67 6 67 8 67 7 6 74 8 74 4 74 5 74 10 74 2 74 1 74 5 6 38 3 38 7 38 5 38 9 38 
 5  5 8 81 1 81 9 81 2 81 4 81 4 3 50 6 50 4 50 5 50 6 1 81 6 81 10 81 7 81 8 81 3 81 5 4 10 1 10 2 10 5 10 9 10 6 7 84 3 84 2 84 5 84 9 84 10 84 
 6  6 9 59 6 59 10 59 5 59 3 59 8 59 6 2 35 1 35 5 35 6 35 7 35 10 35 3 10 34 6 34 1 34 6 7 57 2 57 5 57 4 57 9 57 6 57 7 8 27 6 27 7 27 9 27 4 27 1 27 2 27 4 5 35 2 35 6 35 3 35 
 5  7 3 13 4 13 5 13 9 13 10 13 7 13 2 13 7 3 87 10 87 8 87 6 87 4 87 9 87 7 87 5 5 31 4 31 3 31 7 31 9 31 3 4 26 6 26 7 26 6 9 47 6 47 10 47 7 47 5 47 2 47 
 5  4 4 49 10 49 8 49 2 49 4 3 21 7 21 9 21 2 21 6 7 55 10 55 1 55 8 55 6 55 2 55 6 6 94 10 94 8 94 9 94 3 94 4 94 6 9 27 8 27 7 27 1 27 10 27 6 27 
 6  4 10 92 4 92 6 92 7 92 4 10 77 2 77 3 77 4 77 5 8 66 4 66 5 66 3 66 10 66 4 10 9 5 9 3 9 9 9 3 2 1 7 1 9 1 6 9 87 10 87 2 87 7 87 6 87 8 87 
 5  5 7 31 5 31 2 31 4 31 3 31 6 8 14 1 14 3 14 7 14 2 14 9 14 7 1 18 8 18 6 18 10 18 5 18 3 18 9 18 3 5 68 8 68 3 68 3 6 9 8 9 9 9 

Arrivaltimes
268 360 67 382 213 373 369 172 231 97 271 1 172 285 244 77 328 358 43 270 98 159 306 92 172 96 249 282 165 233